c This Formular is generated by mcnf
c
c    horn? no 
c    forced? no 
c    mixed sat? no 
c    clause length = 3 
c
p cnf 20  91 
 7 -2 15 0
-16 -6 -3 0
-15 -2 10 0
-7 -15 -6 0
6 4 -2 0
-19 12 -18 0
2 -16 -18 0
16 6 -13 0
16 7 5 0
-18 13 4 0
-16 -20 1 0
6 -13 17 0
-14 -13 -6 0
13 1 -14 0
20 -5 11 0
-20 -15 19 0
-4 -12 -7 0
-13 12 -5 0
-4 -5 1 0
-8 -11 -6 0
3 11 15 0
%
0

19 80 73 71 90 99 76 60 37 7 99 91 26 19 42 24 68 3 49 4
